--Link1--
%chk=L51a.chk
#HF/6-31G* SCF=tight Test Pop=MK iop(6/33=2) iop(6/42=6) opt

remark line goes here

0   1
    C   43.9070000000       51.2840000000       24.4330000000     
    C   43.3570000000       50.5290000000       23.3490000000     
    C   42.3530000000       50.7490000000       22.3340000000     
    N   44.2490000000       53.1180000000       25.9430000000     
    C   44.0370000000       49.2880000000       23.3870000000     
    C   41.7550000000       45.1730000000       18.7260000000     
    C   42.9750000000       45.8850000000       18.5390000000     
    C   43.3080000000       46.9630000000       19.4140000000     
    C   42.4380000000       47.3580000000       20.4880000000     
    C   41.2190000000       46.6270000000       20.6500000000     
    C   40.8840000000       45.5590000000       19.7890000000     
    C   40.4510000000       44.0180000000       16.8200000000     
    C   41.2780000000       42.0460000000       17.0630000000     
    C   41.8790000000       42.8110000000       18.0180000000     
    C   40.8700000000       46.3960000000       14.5900000000     
    C   43.5490000000       52.6610000000       24.8590000000     
    C   46.0410000000       46.3770000000       26.5150000000     
    C   45.2260000000       47.4270000000       25.9960000000     
    C   47.1000000000       48.1230000000       24.5260000000     
    C   45.9170000000       45.3320000000       27.4680000000     
    N   44.8600000000       50.5690000000       25.0910000000     
    N   44.9260000000       49.3580000000       24.4540000000     
    C   42.0540000000       49.7140000000       21.3900000000     
    C   42.7410000000       48.4580000000       21.4350000000     
    C   43.7350000000       48.2620000000       22.4420000000     
    F   44.3790000000       47.0830000000       22.4890000000     
    F   44.4740000000       47.6020000000       19.2050000000     
    N   41.3700000000       44.0850000000       17.8910000000     
    N   40.4060000000       42.7850000000       16.3310000000     
    C   39.6250000000       45.1900000000       16.2980000000     
    N   40.4150000000       46.4210000000       15.9920000000     
    C   39.6070000000       47.6300000000       16.2050000000     
    O   42.6960000000       53.3650000000       24.3130000000     
    C   45.7530000000       48.3080000000       24.9970000000     
    C   47.9310000000       47.0740000000       25.0380000000     
    C   47.3480000000       46.2340000000       26.0270000000     
    O   47.9370000000       45.1790000000       26.6530000000     
    N   47.0430000000       44.6110000000       27.5580000000     
    N   44.8120000000       45.1060000000       28.1820000000     
    H   41.8270000000       51.6960000000       22.2870000000     
    H   44.0740000000       54.0350000000       26.3000000000     
    H   44.9350000000       52.5340000000       26.3780000000     
    H   43.6510000000       45.6080000000       17.7320000000     
    H   44.2120000000       47.5570000000       26.3560000000     
    H   40.5360000000       46.9000000000       21.4530000000     
    H   39.9480000000       45.0220000000       19.9380000000     
    H   41.4710000000       40.9900000000       16.9090000000     
    H   42.6170000000       42.4800000000       18.7400000000     
    H   41.4500000000       47.3060000000       14.3760000000     
    H   39.9970000000       46.3520000000       13.9220000000     
    H   41.5030000000       45.5110000000       14.4250000000     
    H   47.4940000000       48.7910000000       23.7680000000     
    H   41.2980000000       49.8830000000       20.6320000000     
    H   48.9480000000       46.9290000000       24.6910000000     
    H   38.8730000000       45.4450000000       17.0590000000     
    H   39.1190000000       44.8690000000       15.3750000000     
    H   40.2110000000       48.5200000000       15.9730000000     
    H   39.2800000000       47.6720000000       17.2540000000     
    H   38.7260000000       47.6030000000       15.5470000000     
    H   43.9850000000       45.7070000000       28.0550000000     
    H   44.7860000000       44.3310000000       28.8600000000     


