--Link1--
%chk=molecule
#HF/6-31G* SCF=tight Test Pop=MK iop(6/33=2) iop(6/42=6) opt

remark line goes here

-1   1
    P    1.3096000000       -0.3664000000       -1.6870000000     
    O    2.7106000000       -0.0544000000       -2.3850000000     
    P    3.9056000000        1.0346000000       -2.1500000000     
    O    4.5646000000        0.4096000000       -0.7700000000     
    C    5.7856000000       -0.2574000000       -0.7140000000     
    C    5.6786000000       -1.4514000000        0.2250000000     
    C    4.7616000000       -2.5954000000       -0.2260000000     
    C    3.4316000000       -2.1274000000        0.3370000000     
    C    3.8746000000       -1.5564000000        1.6780000000     
    N    2.9286000000       -0.4894000000        2.1360000000     
    C    1.8146000000       -0.8914000000        2.7630000000     
    C    0.8756000000        0.0096000000        3.1760000000     
    C    1.0886000000        1.3586000000        2.9160000000     
    C    2.2116000000        1.7546000000        2.2190000000     
    C    2.4046000000        3.2216000000        1.9310000000     
    N    3.0406000000        3.5276000000        0.7990000000     
    O    2.0036000000        4.0246000000        2.7390000000     
    C    3.1186000000        0.7916000000        1.8260000000     
    O    5.1316000000       -1.0354000000        1.4920000000     
    O    2.4076000000       -3.0384000000        0.4570000000     
    O    5.1236000000       -3.8024000000        0.3970000000     
    O    4.8776000000        0.8636000000       -3.2300000000     
    O    3.3266000000        2.3266000000       -1.7410000000     
    O    0.3056000000        0.3266000000       -2.7400000000     
    C   -1.0554000000       -0.0064000000       -2.7780000000     
    C   -1.8904000000        1.0776000000       -2.1140000000     
    C   -1.8514000000        1.1726000000       -0.5830000000     
    C   -3.2144000000        1.7966000000       -0.2900000000     
    C   -4.1004000000        1.1856000000       -1.3760000000     
    N   -4.8464000000        0.0126000000       -0.9160000000     
    C   -6.0014000000        0.0266000000       -0.1950000000     
    N   -6.6874000000        1.0746000000        0.2540000000     
    C   -7.7684000000        0.7126000000        0.9000000000     
    N   -8.2214000000       -0.5134000000        1.1430000000     
    C   -7.5164000000       -1.5424000000        0.6940000000     
    N   -7.9474000000       -2.7974000000        0.9650000000     
    C   -6.3424000000       -1.2974000000       -0.0210000000     
    N   -5.4224000000       -2.1234000000       -0.6320000000     
    C   -4.5694000000       -1.3114000000       -1.1430000000     
    O   -3.2574000000        0.7826000000       -2.4030000000     
    O   -3.1644000000        3.1746000000       -0.5060000000     
    O   -0.8604000000        1.9866000000       -0.0640000000     
    O    1.2106000000        0.3386000000       -0.3760000000     
    O    1.0926000000       -1.8334000000       -1.6720000000     
    H    6.5406000000        0.4196000000       -0.3240000000     
    H    6.1036000000       -0.5814000000       -1.6960000000     
    H    6.6746000000       -1.8284000000        0.4280000000     
    H    4.7236000000       -2.7014000000       -1.3040000000     
    H    3.1356000000       -1.2904000000       -0.2570000000     
    H    3.8716000000       -2.2994000000        2.4630000000     
    H    1.7136000000       -1.9464000000        2.9100000000     
    H   -0.0054000000       -0.3344000000        3.6800000000     
    H    0.3846000000        2.1036000000        3.2340000000     
    H    3.1056000000        4.5026000000        0.6030000000     
    H    3.0926000000        2.9246000000       -0.0170000000     
    H    3.9986000000        1.0156000000        1.2660000000     
    H    1.7866000000       -2.8334000000       -0.2530000000     
    H    5.8626000000       -4.1824000000       -0.0560000000     
    H   -1.2324000000       -0.9704000000       -2.3150000000     
    H   -1.3464000000       -0.0764000000       -3.8180000000     
    H   -1.6294000000        2.0396000000       -2.5360000000     
    H   -1.8034000000        0.1716000000       -0.1580000000     
    H   -3.5834000000        1.5766000000        0.7060000000     
    H   -4.8214000000        1.9076000000       -1.7250000000     
    H   -8.3774000000        1.5106000000        1.2880000000     
    H   -7.5564000000       -3.5444000000        0.4370000000     
    H   -8.8914000000       -2.8914000000        1.2620000000     
    H   -3.7134000000       -1.6004000000       -1.7130000000     
    H   -2.2934000000        3.4676000000       -0.2600000000     
    H   -0.0064000000        1.5416000000       -0.1780000000     


