--Link1--
%chk=molecule
#HF/CEP-31G SCF=tight Test Pop=MK iop(6/33=2) iop(6/42=6) opt
#Pop=ReadRadii iop(6/50=1)

remark line goes here

0   1
    C   -1.0270000000        0.6550000000        0.0000000000     
    H   -1.1080000000        1.2700000000       -0.8880000000     
    H   -1.1080000000        1.2700000000        0.8880000000     
    C   -2.0270000000       -0.5150000000        0.0000000000     
    H   -1.8630000000       -1.1390000000        0.8760000000     
    H   -1.8630000000       -1.1390000000       -0.8760000000     
    C   -3.4790000000        0.0240000000        0.0000000000     
    H   -4.1920000000       -0.8010000000       -0.0000000000     
    H   -3.6730000000        0.6350000000       -0.8830000000     
    H   -3.6730000000        0.6350000000        0.8830000000     
    I    1.0690000000       -0.0320000000        0.0000000000     

I         1.99

g09.gesp

I         1.99

g09.gesp


