$RunGauss
%Chk=1AMP_OH_large_mk.chk
%Mem=3000MB
%NProcShared=2
#N B3LYP/6-31G* Integral=(Grid=UltraFine) Opt Pop(MK,ReadRadii) SCF=XQC
IOp(6/33=2)
 
CLR
 
0 1
H       0   39.960   2.289  28.432
C      -1   39.512   1.495  29.030
C      -1   40.657   0.632  29.530
O      -1   41.789   0.858  29.086
H       0   38.829   0.914  28.410
H       0   38.962   1.933  29.863
N      -1   40.506  -0.377  30.375
C      -1   41.643  -1.165  30.819
C      -1   41.529  -2.522  30.159
O      -1   40.427  -3.033  29.985
C      -1   41.660  -1.330  32.349
C      -1   40.583  -2.171  33.029
N      -1   40.565  -3.477  33.261
C      -1   39.373  -1.693  33.459
C      -1   39.455  -3.800  33.788
N      -1   38.655  -2.735  33.903
H       0   39.586  -0.608  30.721
H       0   42.567  -0.670  30.522
H       0   42.596  -1.798  32.654
H       0   41.572  -0.352  32.821
H       0   41.311  -4.127  33.056
H       0   39.269  -4.835  34.076
H       0   38.952  -0.688  33.489
N      -1   42.659  -3.142  29.866
C      -1   42.673  -4.373  29.120
H       0   42.752  -5.269  29.735
H       0   43.487  -4.329  28.396
H       0   43.539  -2.750  30.169
H       0   41.751  -4.461  28.546
H       0   32.346  -7.828  30.012
C      -1   31.910  -6.851  30.221
C      -1   33.000  -6.033  30.903
O      -1   33.224  -4.884  30.552
H       0   31.039  -6.936  30.871
H       0   31.598  -6.384  29.287
N      -1   33.705  -6.639  31.845
C      -1   34.751  -5.963  32.562
C      -1   36.105  -6.506  32.079
O      -1   36.664  -7.371  32.751
C      -1   34.511  -6.204  34.075
C      -1   35.441  -5.345  34.926
O      -1   35.971  -4.336  34.447
O      -1   35.661  -5.695  36.078
H       0   33.511  -7.603  32.075
H       0   34.691  -4.892  32.369
H       0   33.480  -5.952  34.325
H       0   34.695  -7.252  34.310
N      -1   36.876  -5.659  31.398
C      -1   36.423  -4.626  30.482
H       0   36.618  -4.770  29.419
H       0   36.870  -3.698  30.838
H       0   37.880  -5.703  31.498
H       0   35.341  -4.518  30.562
H       0   44.468  -2.205  35.959
C      -1   43.701  -1.650  36.499
C      -1   43.177  -2.428  37.698
O      -1   42.927  -1.829  38.753
H       0   42.879  -1.413  35.823
H       0   44.118  -0.709  36.858
N      -1   43.014  -3.748  37.597
C      -1   42.362  -4.548  38.622
C      -1   43.162  -4.702  39.896
O      -1   42.654  -5.167  40.911
C      -1   42.066  -5.928  38.059
C      -1   41.061  -5.886  36.884
C      -1   39.614  -5.597  37.215
O      -1   39.327  -5.067  38.271
O      -1   38.730  -5.878  36.411
H       0   43.352  -4.234  36.779
H       0   41.414  -4.086  38.896
H       0   42.989  -6.378  37.694
H       0   41.641  -6.557  38.841
H       0   41.357  -5.108  36.180
H       0   41.054  -6.851  36.377
N      -1   44.408  -4.245  39.866
C      -1   45.392  -4.477  40.894
H       0   45.691  -3.504  41.283
H       0   46.005  -5.114  40.256
H       0   44.721  -3.692  39.081
H       0   44.955  -5.087  41.685
H       0   35.641   4.027  29.763
C      -1   34.811   3.346  29.576
C      -1   35.232   2.049  30.278
O      -1   36.228   1.406  29.917
H       0   34.701   3.210  28.500
H       0   33.896   3.763  29.997
N      -1   34.502   1.688  31.318
C      -1   34.708   0.515  32.095
C      -1   33.335  -0.047  32.432
O      -1   32.775   0.300  33.485
C      -1   35.501   0.844  33.385
C      -1   35.994  -0.411  34.127
O      -1   35.642  -1.536  33.797
O      -1   36.787  -0.284  35.041
H       0   33.728   2.266  31.613
H       0   35.287  -0.206  31.518
H       0   36.376   1.442  33.132
H       0   34.865   1.404  34.070
N      -1   33.023  -1.069  31.616
C      -1   31.804  -1.862  31.591
H       0   31.029  -1.262  31.114
H       0   31.498  -2.149  32.597
H       0   33.682  -1.367  30.911
H       0   31.971  -2.768  31.008
H       0   31.144  -9.737  37.110
C      -1   32.164  -9.377  36.972
C      -1   33.052  -9.947  38.076
O      -1   32.611 -10.236  39.202
H       0   32.209  -8.288  36.959
H       0   32.536  -9.701  36.000
N      -1   34.305 -10.168  37.701
C      -1   35.371 -10.769  38.499
C      -1   35.080 -12.211  38.896
O      -1   35.426 -12.682  39.984
C      -1   35.680 -10.039  39.806
C      -1   36.043  -8.581  39.682
N      -1   36.411  -7.888  40.702
C      -1   35.950  -7.685  38.645
C      -1   36.507  -6.658  40.374
N      -1   36.221  -6.472  39.118
H       0   34.604  -9.910  36.771
H       0   36.295 -10.783  37.921
H       0   34.808 -10.078  40.459
H       0   36.525 -10.519  40.300
H       0   36.599  -8.247  41.627
H       0   36.799  -5.917  41.118
H       0   35.708  -7.817  37.590
N      -1   34.399 -12.926  37.999
C      -1   34.145 -14.336  38.167
H       0   34.344 -14.765  37.185
H       0   33.123 -14.562  38.472
H       0   34.042 -12.478  37.167
H       0   34.812 -14.737  38.930
Zn     -1   37.111  -5.169  37.422
Zn     -1   36.803  -2.620  35.095
O      -1   36.948  -2.928  37.363
H       0   37.850  -2.836  37.669
 
Zn 1.395
 
 
