$RunGauss
%Chk=1AMP_OH_sidechain_opt.chk
%Mem=3000MB
%NProcShared=2
#N B3LYP/6-31G* Geom=PrintInputOrient Integral=(Grid=UltraFine) Opt
SCF=XQC
 
CLR
 
0 1
H          40.790  -0.574  30.486
C          41.643  -1.165  30.819
H          41.561  -2.142  30.344
C          41.660  -1.330  32.349
C          40.583  -2.171  33.029
N          40.565  -3.477  33.261
C          39.373  -1.693  33.459
C          39.455  -3.800  33.788
N          38.655  -2.735  33.903
H          42.567  -0.670  30.522
H          42.596  -1.798  32.654
H          41.572  -0.352  32.821
H          41.311  -4.127  33.056
H          39.269  -4.835  34.076
H          38.952  -0.688  33.489
H          33.958  -6.476  32.018
C          34.751  -5.963  32.562
H          35.711  -6.348  32.219
C          34.511  -6.204  34.075
C          35.441  -5.345  34.926
O          35.971  -4.336  34.447
O          35.661  -5.695  36.078
H          34.691  -4.892  32.369
H          33.480  -5.952  34.325
H          34.695  -7.252  34.310
H          42.851  -3.949  37.854
C          42.362  -4.548  38.622
H          42.939  -4.659  39.540
C          42.066  -5.928  38.059
C          41.061  -5.886  36.884
C          39.614  -5.597  37.215
O          39.327  -5.067  38.271
O          38.730  -5.878  36.411
H          41.414  -4.086  38.896
H          42.989  -6.378  37.694
H          41.641  -6.557  38.841
H          41.357  -5.108  36.180
H          41.054  -6.851  36.377
H          34.550   1.414  31.499
C          34.708   0.515  32.095
H          33.724   0.112  32.336
C          35.501   0.844  33.385
C          35.994  -0.411  34.127
O          35.642  -1.536  33.797
O          36.787  -0.284  35.041
H          35.287  -0.206  31.518
H          36.376   1.442  33.132
H          34.865   1.404  34.070
H          34.576 -10.321  37.904
C          35.371 -10.769  38.499
H          35.163 -11.801  38.783
C          35.680 -10.039  39.806
C          36.043  -8.581  39.682
N          36.411  -7.888  40.702
C          35.950  -7.685  38.645
C          36.507  -6.658  40.374
N          36.221  -6.472  39.118
H          36.295 -10.783  37.921
H          34.808 -10.078  40.459
H          36.525 -10.519  40.300
H          36.599  -8.247  41.627
H          36.799  -5.917  41.118
H          35.708  -7.817  37.590
Zn         37.111  -5.169  37.422
Zn         36.803  -2.620  35.095
O          36.948  -2.928  37.363
H          37.850  -2.836  37.669
 
 
